NAME : n80w80.001.624.tour
COMMENT : Length = 624
COMMENT : Found by LKH [Keld Helsgaun] Tue May  2 05:18:29 2017
TYPE : TOUR
DIMENSION : 81
TOUR_SECTION
1
22
53
67
9
78
19
73
12
32
33
7
43
14
28
59
44
5
4
61
37
56
10
29
13
42
66
76
77
39
18
47
35
20
41
45
58
27
49
23
8
24
21
80
60
38
79
72
55
71
31
17
64
26
68
15
70
51
25
2
75
6
48
62
34
50
3
65
63
46
52
69
40
11
30
36
74
16
54
81
57
-1
EOF
